32	0

0	1	2
3	1	3
10	1	4
5	1	5
9	1	6
10	1	7
6	1	8
10	1	9
9	1	10
10	1	11
9	1	12
4	1	13
9	1	14
3	1	15
7	1	16
7	1	17
7	1	18
2	1	19
1	1	20
3	1	21
3	1	22
10	1	23
9	1	24
10	1	25
8	1	26
8	1	27
3	1	28
4	1	29
2	1	30
2	1	31
2	1	32
0	0
